param N := 15;

param B := 4194303.500000;

param A :=
	[1] 786433
	[2] 655361
	[3] 589825
	[4] 557057
	[5] 540673
	[6] 532481
	[7] 528385
	[8] 526337
	[9] 525313
	[10] 524801
	[11] 524545
	[12] 524417
	[13] 524353
	[14] 524321
	[15] 524305;

